p edge 500 90
e 69 292 1.000000
e 69 434 1.000000
e 292 434 1.000000
e 392 411 1.000000
e 33 411 1.000000
e 33 392 1.000000
e 131 254 1.000000
e 61 131 1.000000
e 61 254 1.000000
e 231 390 1.000000
e 231 242 1.000000
e 242 390 1.000000
e 334 404 1.000000
e 195 334 1.000000
e 195 404 1.000000
e 108 250 1.000000
e 49 108 1.000000
e 49 250 1.000000
e 15 458 1.000000
e 15 428 1.000000
e 428 458 1.000000
e 200 222 1.000000
e 200 312 1.000000
e 222 312 1.000000
e 391 393 1.000000
e 2 391 1.000000
e 2 393 1.000000
e 229 357 1.000000
e 137 357 1.000000
e 137 229 1.000000
e 370 411 1.000000
e 118 370 1.000000
e 118 411 1.000000
e 303 484 1.000000
e 53 303 1.000000
e 53 484 1.000000
e 163 462 1.000000
e 16 462 1.000000
e 16 163 1.000000
e 12 14 1.000000
e 12 333 1.000000
e 14 333 1.000000
e 278 481 1.000000
e 5 278 1.000000
e 5 481 1.000000
e 196 452 1.000000
e 196 352 1.000000
e 352 452 1.000000
e 111 497 1.000000
e 111 217 1.000000
e 217 497 1.000000
e 15 372 1.000000
e 15 271 1.000000
e 271 372 1.000000
e 114 392 1.000000
e 114 225 1.000000
e 225 392 1.000000
e 254 481 1.000000
e 254 284 1.000000
e 284 481 1.000000
e 120 177 1.000000
e 119 120 1.000000
e 119 177 1.000000
e 347 390 1.000000
e 113 347 1.000000
e 113 390 1.000000
e 236 488 1.000000
e 149 236 1.000000
e 149 488 1.000000
e 12 475 1.000000
e 12 214 1.000000
e 214 475 1.000000
e 429 470 1.000000
e 285 429 1.000000
e 285 470 1.000000
e 329 473 1.000000
e 52 473 1.000000
e 52 329 1.000000
e 96 323 1.000000
e 96 371 1.000000
e 323 371 1.000000
e 152 441 1.000000
e 62 441 1.000000
e 62 152 1.000000
e 381 459 1.000000
e 171 381 1.000000
e 171 459 1.000000
e 370 499 1.000000
e 365 370 1.000000
e 365 499 1.000000
